
Gurobi 7.5.2 (linux64) logging started Sat Jun 23 17:24:20 2018

Changed value of parameter LogFile to result/ilp/simNo_5-n_100-m_40-s_4-minVAF_0.05-cov_2000-k_1-fn_0.05-fp_0.0001-na_0.15.ILP.gurobiSolverLog
   Prev: gurobi.log  Default: 
Changed value of parameter TimeLimit to 86400.0
   Prev: 1e+100  Min: 0.0  Max: 1e+100  Default: 1e+100
Optimize a model with 1265601 rows, 330440 columns and 3489120 nonzeros
Variable types: 0 continuous, 330440 integer (330440 binary)
Coefficient statistics:
  Matrix range     [9e-04, 2e+00]
  Objective range  [6e-01, 9e+00]
  Bounds range     [1e+00, 1e+00]
  RHS range        [9e-02, 2e+00]
Found heuristic solution: objective -8437.559958
Presolve removed 337144 rows and 214054 columns (presolve time = 6s) ...
Presolve removed 337636 rows and 214054 columns (presolve time = 10s) ...
Presolve removed 338588 rows and 214054 columns (presolve time = 15s) ...
Presolve removed 338662 rows and 214054 columns (presolve time = 20s) ...
Presolve removed 338662 rows and 214054 columns (presolve time = 25s) ...
Presolve removed 338662 rows and 214054 columns (presolve time = 30s) ...
Presolve removed 338662 rows and 214054 columns (presolve time = 35s) ...
Presolve removed 338662 rows and 214054 columns (presolve time = 42s) ...
Presolve removed 338662 rows and 214054 columns
Presolve time: 41.67s
Presolved: 926939 rows, 116386 columns, 2570400 nonzeros
Variable types: 0 continuous, 116386 integer (116386 binary)
Presolve removed 0 rows and 0 columns (presolve time = 5s) ...
Presolved: 116386 rows, 1043325 columns, 2686786 nonzeros

Presolve removed 116386 rows and 1043325 columns

Root simplex log...

Iteration    Objective       Primal Inf.    Dual Inf.      Time
       0    4.6293058e+00   0.000000e+00   6.832400e+04     55s
    4211   -4.4268958e+01   0.000000e+00   5.651000e+03     55s
    5431   -6.4180604e+01   0.000000e+00   0.000000e+00     57s
    5431   -6.4180604e+01   0.000000e+00   0.000000e+00     59s

Root relaxation: objective -6.418060e+01, 5431 iterations, 14.24 seconds
Total elapsed time = 60.05s
Total elapsed time = 73.18s
Total elapsed time = 80.83s

    Nodes    |    Current Node    |     Objective Bounds      |     Work
 Expl Unexpl |  Obj  Depth IntInf | Incumbent    BestBd   Gap | It/Node Time

     0     0  -64.18060    0  156 -8437.5600  -64.18060  99.2%     -   89s
H    0     0                     -81.3149601  -64.18060  21.1%     -   93s
     0     0  -67.06361    0  156  -81.31496  -67.06361  17.5%     -  108s
     0     0  -68.50511    0  155  -81.31496  -68.50511  15.8%     -  130s
     0     0  -68.57313    0  290  -81.31496  -68.57313  15.7%     -  151s
     0     0  -68.57313    0  271  -81.31496  -68.57313  15.7%     -  174s
     0     0  -68.62770    0  329  -81.31496  -68.62770  15.6%     -  211s
     0     0  -68.62770    0  330  -81.31496  -68.62770  15.6%     -  226s
     0     0  -70.01464    0  223  -81.31496  -70.01464  13.9%     -  237s
     0     0  -71.38812    0  101  -81.31496  -71.38812  12.2%     -  256s
     0     0  -71.43347    0  262  -81.31496  -71.43347  12.2%     -  271s
     0     0  -71.43347    0  272  -81.31496  -71.43347  12.2%     -  280s
     0     0  -72.40860    0  299  -81.31496  -72.40860  11.0%     -  295s
     0     0  -72.40860    0  267  -81.31496  -72.40860  11.0%     -  310s
     0     0  -73.16939    0  216  -81.31496  -73.16939  10.0%     -  344s
     0     0  -73.16939    0   89  -81.31496  -73.16939  10.0%     -  476s
     0     0  -73.16939    0  185  -81.31496  -73.16939  10.0%     -  476s
     0     0  -73.16939    0  107  -81.31496  -73.16939  10.0%     -  477s
     0     0  -73.16939    0  122  -81.31496  -73.16939  10.0%     -  477s
     0     0  -73.16939    0  124  -81.31496  -73.16939  10.0%     -  477s
     0     0  -73.61781    0  131  -81.31496  -73.61781  9.47%     -  478s
     0     0  -73.88426    0  125  -81.31496  -73.88426  9.14%     -  478s
     0     0  -73.92905    0  130  -81.31496  -73.92905  9.08%     -  478s
     0     0  -73.92905    0  132  -81.31496  -73.92905  9.08%     -  479s
     0     0  -73.92905    0  130  -81.31496  -73.92905  9.08%     -  479s
     0     0  -74.18755    0  132  -81.31496  -74.18755  8.77%     -  479s
     0     0  -74.18875    0  132  -81.31496  -74.18875  8.76%     -  480s
     0     0  -74.18875    0  136  -81.31496  -74.18875  8.76%     -  480s
     0     0  -74.19836    0  138  -81.31496  -74.19836  8.75%     -  480s
     0     0  -74.23521    0  138  -81.31496  -74.23521  8.71%     -  480s
     0     0  -74.24750    0  139  -81.31496  -74.24750  8.69%     -  481s
     0     0  -74.25229    0  139  -81.31496  -74.25229  8.69%     -  481s
     0     0  -74.50687    0  138  -81.31496  -74.50687  8.37%     -  481s
     0     0  -74.56036    0  136  -81.31496  -74.56036  8.31%     -  481s
     0     0  -74.60454    0  139  -81.31496  -74.60454  8.25%     -  482s
     0     0  -74.60762    0  138  -81.31496  -74.60762  8.25%     -  482s
     0     0  -74.60762    0  138  -81.31496  -74.60762  8.25%     -  482s
     0     0  -75.69849    0  126  -81.31496  -75.69849  6.91%     -  482s
     0     0  -75.86765    0  136  -81.31496  -75.86765  6.70%     -  482s
     0     0  -75.86817    0  138  -81.31496  -75.86817  6.70%     -  483s
     0     0  -75.86817    0  140  -81.31496  -75.86817  6.70%     -  483s
     0     0  -75.87841    0  123  -81.31496  -75.87841  6.69%     -  483s
     0     0  -75.90002    0  138  -81.31496  -75.90002  6.66%     -  484s
     0     0  -75.90002    0  140  -81.31496  -75.90002  6.66%     -  484s
     0     0  -75.94682    0  138  -81.31496  -75.94682  6.60%     -  485s
     0     0  -75.97230    0  138  -81.31496  -75.97230  6.57%     -  485s
     0     0  -75.98187    0  138  -81.31496  -75.98187  6.56%     -  486s
     0     0  -75.99744    0  139  -81.31496  -75.99744  6.54%     -  486s
     0     0  -75.99744    0  139  -81.31496  -75.99744  6.54%     -  486s
     0     0  -76.56930    0  127  -81.31496  -76.56930  5.84%     -  486s
     0     0  -76.61907    0  104  -81.31496  -76.61907  5.77%     -  487s
     0     0  -76.70471    0  123  -81.31496  -76.70471  5.67%     -  487s
     0     0  -76.70471    0   88  -81.31496  -76.70471  5.67%     -  489s
     0     0  -76.70471    0  180  -81.31496  -76.70471  5.67%     -  489s
     0     0  -76.70471    0  101  -81.31496  -76.70471  5.67%     -  489s
     0     0  -76.71889    0  115  -81.31496  -76.71889  5.65%     -  489s
     0     0  -76.72178    0  115  -81.31496  -76.72178  5.65%     -  489s
     0     0  -76.72820    0  104  -81.31496  -76.72820  5.64%     -  489s
     0     0  -76.72820    0  106  -81.31496  -76.72820  5.64%     -  489s
     0     0  -76.72820    0  107  -81.31496  -76.72820  5.64%     -  489s
     0     0  -76.79858    0  120  -81.31496  -76.79858  5.55%     -  489s
     0     0  -76.79858    0  127  -81.31496  -76.79858  5.55%     -  490s
     0     0  -76.80050    0  128  -81.31496  -76.80050  5.55%     -  490s
     0     0  -76.80050    0  129  -81.31496  -76.80050  5.55%     -  490s
     0     0  -76.80050    0  127  -81.31496  -76.80050  5.55%     -  490s
     0     0  -76.80050    0  127  -81.31496  -76.80050  5.55%     -  491s
     0     2  -76.85098    0  127  -81.31496  -76.85098  5.49%     -  491s

Cutting planes:
  Gomory: 4
  Zero half: 46

Explored 25 nodes (19801 simplex iterations) in 492.54 seconds
Thread count was 1 (of 80 available processors)

Solution count 4: -81.315 -81.315 -81.315 -8437.56 

Optimal solution found (tolerance 1.00e-04)
Best objective -8.131496013627e+01, best bound -8.131496013627e+01, gap 0.0000%
